4 100 2087
5 8 10 11 14 5 5 12 6 10
1 1 4 4
5
1
6 8 9 3
4 1 4 6
0 40.0 50.0 0.0 0.0 0 240
2 25.0 85.0 10.0 20.0 0 191 38 0 0 0 0 0 0 1 0 0 1
3 22.0 75.0 10.0 30.0 0 199 52 0 0 1 0 0 1 0 0 0 0
4 22.0 85.0 10.0 10.0 0 190 79 0 0 0 0 0 0 1 0 0 0
5 20.0 80.0 10.0 40.0 141 171 93 0 0 0 0 1 0 1 0 0 0
6 20.0 85.0 10.0 20.0 0 189 95 0 0 0 0 0 0 1 1 1 0
7 18.0 75.0 10.0 20.0 95 125 62 0 1 1 0 0 1 0 0 0 1
8 15.0 75.0 10.0 20.0 0 194 3 0 0 0 0 0 0 0 1 0 0
9 15.0 80.0 10.0 10.0 91 121 16 0 0 0 1 0 0 0 0 0 0
10 10.0 35.0 10.0 20.0 91 121 22 0 0 0 1 1 0 1 1 0 1
11 10.0 40.0 10.0 30.0 119 149 20 0 0 0 0 0 0 0 1 0 1
12 8.0 40.0 10.0 40.0 59 89 75 0 0 1 0 0 0 0 0 0 0
13 8.0 45.0 10.0 20.0 0 197 33 0 1 0 0 1 0 0 0 0 0
14 5.0 35.0 10.0 10.0 142 172 11 0 1 0 1 1 0 0 0 1 0
15 5.0 45.0 10.0 10.0 35 65 65 0 0 0 1 0 0 0 0 0 0
16 2.0 40.0 10.0 20.0 58 88 57 0 0 0 1 0 0 0 0 0 0
17 0.0 40.0 10.0 20.0 72 102 1 0 0 1 1 0 0 0 0 0 0
18 0.0 45.0 10.0 20.0 149 179 75 0 0 0 0 0 1 0 1 0 0
19 44.0 5.0 10.0 20.0 87 117 27 1 0 1 0 0 0 0 0 1 0
20 42.0 10.0 10.0 40.0 72 102 56 1 0 0 0 1 0 0 0 1 1
21 42.0 15.0 10.0 10.0 122 152 52 0 0 0 0 1 0 1 1 1 0
22 40.0 5.0 10.0 10.0 0 185 44 0 0 0 1 0 0 0 0 0 1
23 40.0 15.0 10.0 40.0 92 122 21 0 1 1 1 0 0 1 0 0 0
24 38.0 5.0 10.0 30.0 65 95 34 0 1 1 0 0 0 0 0 0 1
25 38.0 15.0 10.0 10.0 148 178 89 0 0 0 0 0 0 1 0 1 0
26 35.0 5.0 10.0 20.0 154 184 12 0 0 0 1 0 1 0 0 0 0
27 95.0 30.0 10.0 30.0 0 171 62 0 0 0 0 0 0 0 0 1 0
28 95.0 35.0 10.0 20.0 62 92 11 0 0 1 1 0 1 1 1 0 0
29 92.0 30.0 10.0 10.0 62 92 34 0 0 0 0 0 0 0 1 0 1
30 90.0 35.0 10.0 10.0 67 97 56 1 0 0 0 1 0 1 0 1 1
31 88.0 30.0 10.0 10.0 74 104 9 1 0 0 0 0 1 1 0 1 0
32 88.0 35.0 10.0 20.0 0 179 77 0 0 0 0 1 0 0 0 0 0
33 87.0 30.0 10.0 10.0 131 161 93 0 0 1 0 0 0 0 0 0 0
34 85.0 25.0 10.0 10.0 51 81 70 1 1 0 1 0 0 0 0 0 0
35 85.0 35.0 10.0 30.0 0 182 58 0 0 1 0 1 1 1 0 0 1
36 67.0 85.0 10.0 20.0 139 169 63 1 0 0 1 0 0 0 0 1 0
37 65.0 85.0 10.0 40.0 43 73 33 0 0 0 1 1 0 0 1 0 0
38 65.0 82.0 10.0 10.0 0 189 2 0 0 1 0 0 0 1 0 0 0
39 62.0 80.0 10.0 30.0 75 105 78 0 1 0 0 1 0 0 0 0 0
40 60.0 80.0 10.0 10.0 37 67 45 0 0 1 0 0 0 0 0 0 0
41 60.0 85.0 10.0 30.0 85 115 61 0 1 1 1 0 0 0 1 1 1
42 58.0 75.0 10.0 20.0 92 122 86 0 1 0 1 1 0 0 0 0 1
43 55.0 80.0 10.0 10.0 33 63 86 0 0 1 0 0 0 0 0 0 0
44 55.0 85.0 10.0 20.0 128 158 42 0 0 0 0 1 0 0 0 0 0
45 55.0 82.0 10.0 10.0 64 94 24 1 0 0 0 0 1 0 0 0 0
46 20.0 82.0 10.0 10.0 37 67 89 1 0 1 0 0 0 0 0 0 0
47 18.0 80.0 10.0 10.0 113 143 79 1 0 0 1 1 0 0 0 0 0
48 2.0 45.0 10.0 10.0 45 75 5 0 0 0 0 0 0 0 0 0 1
49 42.0 5.0 10.0 10.0 0 184 9 0 0 0 0 0 1 0 0 0 0
50 42.0 12.0 10.0 10.0 104 134 98 0 0 0 0 0 0 1 0 0 0
51 72.0 35.0 10.0 30.0 0 194 58 0 1 0 0 0 0 0 0 0 0
52 55.0 20.0 10.0 19.0 83 113 46 0 0 1 0 1 0 0 0 0 0
53 25.0 30.0 10.0 3.0 0 205 53 0 0 0 0 0 0 0 1 0 1
54 20.0 50.0 10.0 5.0 91 121 98 0 1 0 0 0 0 0 1 0 0
55 55.0 60.0 10.0 16.0 139 169 5 1 0 0 1 0 0 0 0 0 0
56 30.0 60.0 10.0 16.0 140 170 29 1 1 0 0 0 0 0 0 0 0
57 50.0 35.0 10.0 19.0 130 160 0 0 0 0 0 0 0 0 1 0 1
58 30.0 25.0 10.0 23.0 96 126 87 0 1 0 1 0 0 0 0 0 0
59 15.0 10.0 10.0 20.0 152 182 96 0 1 0 0 0 0 0 1 0 0
60 10.0 20.0 10.0 19.0 0 187 32 0 0 0 1 0 1 0 1 0 0
61 15.0 60.0 10.0 17.0 155 185 61 1 0 0 0 0 0 0 0 1 0
62 45.0 65.0 10.0 9.0 66 96 41 1 1 0 0 0 0 0 1 1 1
63 65.0 35.0 10.0 3.0 52 82 51 0 0 0 0 0 0 1 1 1 0
64 65.0 20.0 10.0 6.0 39 69 90 0 0 0 1 1 0 0 1 0 0
65 45.0 30.0 10.0 17.0 53 83 2 0 1 1 0 0 0 0 0 0 0
66 35.0 40.0 10.0 16.0 11 41 24 0 0 0 1 1 0 0 1 1 0
67 41.0 37.0 10.0 16.0 133 163 51 0 1 0 0 0 0 0 0 0 1
68 64.0 42.0 10.0 9.0 70 100 65 0 0 0 0 0 1 0 0 0 0
69 40.0 60.0 10.0 21.0 144 174 8 0 0 0 0 0 0 0 1 1 0
70 31.0 52.0 10.0 27.0 41 71 28 0 0 0 0 1 0 0 0 0 0
71 35.0 69.0 10.0 23.0 180 210 15 0 0 0 0 0 0 0 0 0 1
72 65.0 55.0 10.0 14.0 65 95 93 0 0 0 0 0 1 1 0 1 0
73 63.0 65.0 10.0 8.0 0 202 75 0 0 1 1 0 0 1 0 0 0
74 2.0 60.0 10.0 5.0 77 107 37 0 0 0 0 0 1 0 0 0 0
75 20.0 20.0 10.0 8.0 141 171 4 0 0 0 1 1 0 0 0 0 0
76 5.0 5.0 10.0 16.0 0 172 31 0 0 1 0 0 0 0 0 0 0
77 60.0 12.0 10.0 31.0 75 105 66 0 0 0 1 0 0 0 0 0 0
78 23.0 3.0 10.0 7.0 150 180 15 0 0 0 0 0 0 0 0 0 1
79 8.0 56.0 10.0 27.0 90 120 78 0 0 1 1 0 0 0 0 0 0
80 6.0 68.0 10.0 30.0 89 119 84 0 0 1 0 0 0 0 0 0 0
81 47.0 47.0 10.0 13.0 192 222 7 0 0 1 0 0 0 1 1 0 0
82 49.0 58.0 10.0 10.0 86 116 20 1 0 0 0 0 0 0 0 0 1
83 27.0 43.0 10.0 9.0 0 215 75 0 0 0 1 0 0 0 0 0 1
84 37.0 31.0 10.0 14.0 0 210 32 0 0 0 0 1 0 0 0 0 0
85 57.0 29.0 10.0 18.0 96 126 23 0 0 0 0 0 0 0 0 0 1
86 63.0 23.0 10.0 2.0 0 194 13 0 0 1 0 0 0 0 0 0 1
87 21.0 24.0 10.0 28.0 87 117 73 0 0 0 0 1 1 0 0 0 0
88 12.0 24.0 10.0 13.0 90 120 68 0 0 0 0 1 1 0 0 0 0
89 24.0 58.0 10.0 19.0 67 97 9 0 0 1 0 0 0 0 0 0 0
90 67.0 5.0 10.0 25.0 144 174 8 0 0 0 0 0 1 0 0 0 0
91 37.0 47.0 10.0 6.0 86 116 81 0 0 0 0 0 1 0 1 0 0
92 49.0 42.0 10.0 13.0 0 217 71 1 0 0 1 0 0 0 0 0 0
93 53.0 43.0 10.0 14.0 14 44 84 1 0 1 0 0 0 0 1 0 0
94 61.0 52.0 10.0 3.0 178 208 25 0 0 0 0 0 0 0 0 0 1
95 57.0 48.0 10.0 23.0 0 212 10 0 0 0 0 0 1 0 0 0 0
96 56.0 37.0 10.0 6.0 0 209 77 0 1 0 0 0 0 0 0 0 1
97 55.0 54.0 10.0 26.0 0 214 74 0 0 0 0 1 0 1 0 0 0
98 4.0 18.0 10.0 35.0 120 150 92 1 0 0 0 0 0 0 0 0 0
99 26.0 52.0 10.0 9.0 0 215 93 1 0 1 0 1 0 0 0 0 0
100 26.0 35.0 10.0 15.0 77 107 68 0 0 0 0 0 0 0 0 1 0
101 31.0 67.0 10.0 3.0 180 210 32 1 0 0 1 0 0 0 0 0 0